p cnf 83 13
-17 28 3 49 -4 -46 59 -82 -31 9 14 0
-16 -70 -51 52 36 12 -65 20 -7 -14 18 0
-51 5 -71 22 1 26 17 -3 -41 -34 62 0
63 -52 -10 31 2 -19 -65 -6 -27 -56 -28 0
-18 -23 5 -32 -39 -30 58 1 9 6 -53 0
-12 26 4 23 -17 2 8 6 34 22 -28 0
60 -20 4 5 21 -2 25 6 3 59 26 0
79 46 30 -10 -2 -40 -1 -13 -9 31 3 0
6 4 -1 7 16 17 -46 -9 -5 -23 83 0
-5 -23 -28 46 -12 19 -29 -27 15 -7 -3 0
-16 28 -18 1 17 7 -10 21 67 -25 12 0
15 -6 64 46 -79 4 -38 -3 -81 -2 23 0
29 -6 14 -36 -47 54 76 -1 -41 4 -50 0
